TYPE : TSP
DIMENSION: 31
EDGE_DATA_FORMAT: EDGE_LIST
EDGE_WEIGHT_TYPE: EXPLICIT
EDGE_WEIGHT_FORMAT: FULL_MATRIX 
EDGE_DATA_SECTION
0 1
0 2
0 3
0 4
0 5
0 6
0 7
0 8
0 9
0 10
0 11
0 12
0 13
0 14
0 15
1 2
1 4
1 6
1 7
1 8
1 12
1 13
1 16
1 17
1 18
1 19
1 20
1 21
1 22
1 23
2 3
2 5
2 7
2 8
2 10
2 11
2 13
2 16
2 17
2 18
2 21
2 24
2 25
2 26
2 27
3 1
3 4
3 6
3 7
3 9
3 11
3 13
3 17
3 18
3 23
3 24
3 25
3 28
3 29
3 30
4 2
4 5
4 7
4 8
4 9
4 12
4 14
4 17
4 19
4 21
4 24
4 27
4 28
4 29
4 30
5 1
5 3
5 6
5 7
5 9
5 10
5 14
5 18
5 19
5 20
5 21
5 22
5 24
5 26
5 29
6 2
6 4
6 7
6 8
6 10
6 11
6 15
6 19
6 20
6 22
6 24
6 25
6 26
6 28
6 30
7 8
7 9
7 10
7 11
7 12
7 14
7 15
7 16
7 17
7 18
7 20
7 23
7 26
7 28
7 29
8 3
8 5
8 9
8 11
8 12
8 13
8 15
8 18
8 19
8 20
8 22
8 23
8 24
8 27
8 30
9 1
9 2
9 6
9 10
9 11
9 12
9 15
9 16
9 18
9 19
9 21
9 25
9 27
9 29
9 30
10 1
10 3
10 4
10 8
10 11
10 13
10 14
10 16
10 20
10 21
10 22
10 27
10 28
10 29
10 30
11 1
11 4
11 5
11 12
11 13
11 14
11 15
11 16
11 17
11 19
11 22
11 24
11 25
11 26
11 29
12 2
12 3
12 5
12 6
12 10
12 13
12 15
12 17
12 21
12 22
12 23
12 26
12 28
12 29
12 30
13 4
13 5
13 6
13 7
13 9
13 14
13 15
13 16
13 20
13 21
13 23
13 25
13 26
13 27
13 30
14 1
14 2
14 3
14 6
14 8
14 9
14 12
14 16
14 22
14 23
14 24
14 25
14 26
14 27
14 28
15 1
15 2
15 3
15 4
15 5
15 10
15 14
15 17
15 18
15 19
15 20
15 23
15 25
15 27
15 28
16 0
16 3
16 4
16 5
16 6
16 8
16 12
16 15
16 18
16 20
16 21
16 24
16 25
16 28
16 29
17 0
17 5
17 6
17 8
17 9
17 10
17 13
17 14
17 16
17 18
17 19
17 22
17 25
17 28
17 30
18 0
18 4
18 6
18 10
18 11
18 12
18 13
18 14
18 19
18 21
18 23
18 24
18 26
18 27
18 28
19 0
19 2
19 3
19 7
19 10
19 12
19 13
19 14
19 16
19 20
19 23
19 24
19 25
19 29
19 30
20 0
20 2
20 3
20 4
20 9
20 11
20 12
20 14
20 17
20 18
20 21
20 22
20 25
20 26
20 30
21 0
21 3
21 6
21 7
21 8
21 11
21 14
21 15
21 17
21 19
21 22
21 23
21 25
21 27
21 29
22 0
22 2
22 3
22 4
22 7
22 9
22 13
22 15
22 16
22 18
22 19
22 26
22 27
22 28
22 29
23 0
23 2
23 4
23 5
23 6
23 9
23 10
23 11
23 16
23 17
23 20
23 22
23 24
23 27
23 29
24 0
24 1
24 7
24 9
24 10
24 12
24 13
24 15
24 17
24 20
24 21
24 22
24 25
24 27
24 28
25 0
25 1
25 4
25 5
25 7
25 8
25 10
25 12
25 18
25 22
25 23
25 26
25 27
25 29
25 30
26 0
26 1
26 3
26 4
26 8
26 9
26 10
26 15
26 16
26 17
26 19
26 21
26 23
26 24
26 30
27 0
27 1
27 3
27 5
27 6
27 7
27 11
27 12
27 16
27 17
27 19
27 20
27 26
27 28
27 30
28 0
28 1
28 2
28 5
28 8
28 9
28 11
28 13
28 19
28 20
28 21
28 23
28 25
28 26
28 29
29 0
29 1
29 2
29 6
29 8
29 13
29 14
29 15
29 17
29 18
29 20
29 24
29 26
29 27
29 30
30 0
30 1
30 2
30 5
30 7
30 11
30 14
30 15
30 16
30 18
30 21
30 22
30 23
30 24
30 28
-1
EDGE_WEIGHT_SECTION
0.0	1.0	1.0	1.0	1.0	1.0	1.0	1.0	1.0	1.0	1.0	1.0	1.0	1.0	1.0	1.0	0.0	0.0	0.0	0.0	0.0	0.0	0.0	0.0	0.0	0.0	0.0	0.0	0.0	0.0	0.0
0.0	0.0	1.0	0.0	1.0	0.0	1.0	1.0	1.0	0.0	0.0	0.0	1.0	1.0	0.0	0.0	1.0	1.0	1.0	1.0	1.0	1.0	1.0	1.0	0.0	0.0	0.0	0.0	0.0	0.0	0.0
0.0	0.0	0.0	1.0	0.0	1.0	0.0	1.0	1.0	0.0	1.0	1.0	0.0	1.0	0.0	0.0	1.0	1.0	1.0	0.0	0.0	1.0	0.0	0.0	1.0	1.0	1.0	1.0	0.0	0.0	0.0
0.0	1.0	0.0	0.0	1.0	0.0	1.0	1.0	0.0	1.0	0.0	1.0	0.0	1.0	0.0	0.0	0.0	1.0	1.0	0.0	0.0	0.0	0.0	1.0	1.0	1.0	0.0	0.0	1.0	1.0	1.0
0.0	0.0	1.0	0.0	0.0	1.0	0.0	1.0	1.0	1.0	0.0	0.0	1.0	0.0	1.0	0.0	0.0	1.0	0.0	1.0	0.0	1.0	0.0	0.0	1.0	0.0	0.0	1.0	1.0	1.0	1.0
0.0	1.0	0.0	1.0	0.0	0.0	1.0	1.0	0.0	1.0	1.0	0.0	0.0	0.0	1.0	0.0	0.0	0.0	1.0	1.0	1.0	1.0	1.0	0.0	1.0	0.0	1.0	0.0	0.0	1.0	0.0
0.0	0.0	1.0	0.0	1.0	0.0	0.0	1.0	1.0	0.0	1.0	1.0	0.0	0.0	0.0	1.0	0.0	0.0	0.0	1.0	1.0	0.0	1.0	0.0	1.0	1.0	1.0	0.0	1.0	0.0	1.0
0.0	0.0	0.0	0.0	0.0	0.0	0.0	0.0	1.0	1.0	1.0	1.0	1.0	0.0	1.0	1.0	1.0	1.0	1.0	0.0	1.0	0.0	0.0	1.0	0.0	0.0	1.0	0.0	1.0	1.0	0.0
0.0	0.0	0.0	1.0	0.0	1.0	0.0	0.0	0.0	1.0	0.0	1.0	1.0	1.0	0.0	1.0	0.0	0.0	1.0	1.0	1.0	0.0	1.0	1.0	1.0	0.0	0.0	1.0	0.0	0.0	1.0
0.0	1.0	1.0	0.0	0.0	0.0	1.0	0.0	0.0	0.0	1.0	1.0	1.0	0.0	0.0	1.0	1.0	0.0	1.0	1.0	0.0	1.0	0.0	0.0	0.0	1.0	0.0	1.0	0.0	1.0	1.0
0.0	1.0	0.0	1.0	1.0	0.0	0.0	0.0	1.0	0.0	0.0	1.0	0.0	1.0	1.0	0.0	1.0	0.0	0.0	0.0	1.0	1.0	1.0	0.0	0.0	0.0	0.0	1.0	1.0	1.0	1.0
0.0	1.0	0.0	0.0	1.0	1.0	0.0	0.0	0.0	0.0	0.0	0.0	1.0	1.0	1.0	1.0	1.0	1.0	0.0	1.0	0.0	0.0	1.0	0.0	1.0	1.0	1.0	0.0	0.0	1.0	0.0
0.0	0.0	1.0	1.0	0.0	1.0	1.0	0.0	0.0	0.0	1.0	0.0	0.0	1.0	0.0	1.0	0.0	1.0	0.0	0.0	0.0	1.0	1.0	1.0	0.0	0.0	1.0	0.0	1.0	1.0	1.0
0.0	0.0	0.0	0.0	1.0	1.0	1.0	1.0	0.0	1.0	0.0	0.0	0.0	0.0	1.0	1.0	1.0	0.0	0.0	0.0	1.0	1.0	0.0	1.0	0.0	1.0	1.0	1.0	0.0	0.0	1.0
0.0	1.0	1.0	1.0	0.0	0.0	1.0	0.0	1.0	1.0	0.0	0.0	1.0	0.0	0.0	0.0	1.0	0.0	0.0	0.0	0.0	0.0	1.0	1.0	1.0	1.0	1.0	1.0	1.0	0.0	0.0
0.0	1.0	1.0	1.0	1.0	1.0	0.0	0.0	0.0	0.0	1.0	0.0	0.0	0.0	1.0	0.0	0.0	1.0	1.0	1.0	1.0	0.0	0.0	1.0	0.0	1.0	0.0	1.0	1.0	0.0	0.0
1.0	0.0	0.0	1.0	1.0	1.0	1.0	0.0	1.0	0.0	0.0	0.0	1.0	0.0	0.0	1.0	0.0	0.0	1.0	0.0	1.0	1.0	0.0	0.0	1.0	1.0	0.0	0.0	1.0	1.0	0.0
1.0	0.0	0.0	0.0	0.0	1.0	1.0	0.0	1.0	1.0	1.0	0.0	0.0	1.0	1.0	0.0	1.0	0.0	1.0	1.0	0.0	0.0	1.0	0.0	0.0	1.0	0.0	0.0	1.0	0.0	1.0
1.0	0.0	0.0	0.0	1.0	0.0	1.0	0.0	0.0	0.0	1.0	1.0	1.0	1.0	1.0	0.0	0.0	0.0	0.0	1.0	0.0	1.0	0.0	1.0	1.0	0.0	1.0	1.0	1.0	0.0	0.0
1.0	0.0	1.0	1.0	0.0	0.0	0.0	1.0	0.0	0.0	1.0	0.0	1.0	1.0	1.0	0.0	1.0	0.0	0.0	0.0	1.0	0.0	0.0	1.0	1.0	1.0	0.0	0.0	0.0	1.0	1.0
1.0	0.0	1.0	1.0	1.0	0.0	0.0	0.0	0.0	1.0	0.0	1.0	1.0	0.0	1.0	0.0	0.0	1.0	1.0	0.0	0.0	1.0	1.0	0.0	0.0	1.0	1.0	0.0	0.0	0.0	1.0
1.0	0.0	0.0	1.0	0.0	0.0	1.0	1.0	1.0	0.0	0.0	1.0	0.0	0.0	1.0	1.0	0.0	1.0	0.0	1.0	0.0	0.0	1.0	1.0	0.0	1.0	0.0	1.0	0.0	1.0	0.0
1.0	0.0	1.0	1.0	1.0	0.0	0.0	1.0	0.0	1.0	0.0	0.0	0.0	1.0	0.0	1.0	1.0	0.0	1.0	1.0	0.0	0.0	0.0	0.0	0.0	0.0	1.0	1.0	1.0	1.0	0.0
1.0	0.0	1.0	0.0	1.0	1.0	1.0	0.0	0.0	1.0	1.0	1.0	0.0	0.0	0.0	0.0	1.0	1.0	0.0	0.0	1.0	0.0	1.0	0.0	1.0	0.0	0.0	1.0	0.0	1.0	0.0
1.0	1.0	0.0	0.0	0.0	0.0	0.0	1.0	0.0	1.0	1.0	0.0	1.0	1.0	0.0	1.0	0.0	1.0	0.0	0.0	1.0	1.0	1.0	0.0	0.0	1.0	0.0	1.0	1.0	0.0	0.0
1.0	1.0	0.0	0.0	1.0	1.0	0.0	1.0	1.0	0.0	1.0	0.0	1.0	0.0	0.0	0.0	0.0	0.0	1.0	0.0	0.0	0.0	1.0	1.0	0.0	0.0	1.0	1.0	0.0	1.0	1.0
1.0	1.0	0.0	1.0	1.0	0.0	0.0	0.0	1.0	1.0	1.0	0.0	0.0	0.0	0.0	1.0	1.0	1.0	0.0	1.0	0.0	1.0	0.0	1.0	1.0	0.0	0.0	0.0	0.0	0.0	1.0
1.0	1.0	0.0	1.0	0.0	1.0	1.0	1.0	0.0	0.0	0.0	1.0	1.0	0.0	0.0	0.0	1.0	1.0	0.0	1.0	1.0	0.0	0.0	0.0	0.0	0.0	1.0	0.0	1.0	0.0	1.0
1.0	1.0	1.0	0.0	0.0	1.0	0.0	0.0	1.0	1.0	0.0	1.0	0.0	1.0	0.0	0.0	0.0	0.0	0.0	1.0	1.0	1.0	0.0	1.0	0.0	1.0	1.0	0.0	0.0	1.0	0.0
1.0	1.0	1.0	0.0	0.0	0.0	1.0	0.0	1.0	0.0	0.0	0.0	0.0	1.0	1.0	1.0	0.0	1.0	1.0	0.0	1.0	0.0	0.0	0.0	1.0	0.0	1.0	1.0	0.0	0.0	1.0
1.0	1.0	1.0	0.0	0.0	1.0	0.0	1.0	0.0	0.0	0.0	1.0	0.0	0.0	1.0	1.0	1.0	0.0	1.0	0.0	0.0	1.0	1.0	1.0	1.0	0.0	0.0	0.0	1.0	0.0	0.0
DIFF_EDGE
0 0
CHROM_NUMBER
8
EOF
